p cnf 115 405
1 -2 -3 0
-1 2 -3 0
1 2 3 0
-1 -2 3 0
6 4 0
6 -5 0
-4 5 -6 0
3 6 -7 0
-3 -6 -7 0
3 -6 7 0
-3 6 7 0
-9 4 0
-9 8 0
-4 -8 9 0
-5 -9 -10 0
5 9 -10 0
-5 9 10 0
5 -9 10 0
-12 -11 0
-12 9 0
11 -9 12 0
-10 -12 -13 0
10 12 -13 0
-10 12 13 0
10 -12 13 0
15 -3 0
15 -14 0
3 14 -15 0
13 -15 -16 0
-13 15 -16 0
13 15 16 0
-13 -15 16 0
-7 16 -17 0
7 -16 -17 0
-7 -16 17 0
7 16 17 0
-18 1 0
-18 14 0
-1 -14 18 0
20 18 0
20 19 0
-18 -19 -20 0
21 -20 0
21 -3 0
20 3 -21 0
-24 -23 0
-24 -20 0
23 20 24 0
25 -22 0
25 -24 0
22 24 -25 0
-21 -25 -26 0
21 25 -26 0
-21 25 26 0
21 -25 26 0
28 -27 0
28 10 0
27 -10 -28 0
-29 1 0
-29 -28 0
-1 28 29 0
-24 -10 -30 0
24 10 -30 0
-24 10 30 0
24 -10 30 0
-31 29 0
-31 30 0
-29 -30 31 0
-32 -26 0
-32 -31 0
26 31 32 0
17 -32 -33 0
-17 32 -33 0
17 32 33 0
-17 -32 33 0
-8 -18 -34 0
8 18 -34 0
-8 18 34 0
8 -18 34 0
-35 -19 0
-35 -34 0
19 34 35 0
36 -12 0
36 -12 0
12 -36 0
28 36 -37 0
-28 -36 -37 0
28 -36 37 0
-28 36 37 0
35 -37 -38 0
-35 37 -38 0
35 37 38 0
-35 -37 38 0
1 -8 -39 0
-1 8 -39 0
1 8 39 0
-1 -8 39 0
40 -39 0
40 -6 0
39 6 -40 0
40 25 -41 0
-40 -25 -41 0
40 -25 41 0
-40 25 41 0
42 -14 0
42 -3 0
14 3 -42 0
-42 -43 -44 0
42 43 -44 0
-42 43 44 0
42 -43 44 0
45 41 0
45 44 0
-41 -44 -45 0
-46 8 0
-46 -27 0
-8 27 46 0
-47 -44 0
-47 46 0
44 -46 47 0
-48 10 0
-48 -20 0
-10 20 48 0
50 48 0
50 -49 0
-48 49 -50 0
51 -11 0
51 19 0
11 -19 -51 0
52 50 0
52 51 0
-50 -51 -52 0
-47 -52 -53 0
47 52 -53 0
-47 52 53 0
47 -52 53 0
54 -45 0
54 53 0
45 -53 -54 0
-38 -54 -55 0
38 54 -55 0
-38 54 55 0
38 -54 55 0
-56 33 0
-56 -55 0
-33 55 56 0
-57 1 0
-57 -4 0
-1 4 57 0
58 34 0
58 57 0
-34 -57 -58 0
-59 -56 0
-59 58 0
56 -58 59 0
-60 8 0
-60 8 0
-8 60 0
-61 -12 0
-61 12 0
62 60 0
62 61 0
-60 -61 -62 0
63 -22 0
63 43 0
22 -43 -63 0
-64 18 0
-64 -63 0
-18 63 64 0
65 -23 0
65 -44 0
23 44 -65 0
43 42 -66 0
-43 -42 -66 0
43 -42 66 0
-43 42 66 0
6 66 -67 0
-6 -66 -67 0
6 -66 67 0
-6 66 67 0
68 -67 0
68 36 0
67 -36 -68 0
-65 -68 -69 0
65 68 -69 0
-65 68 69 0
65 -68 69 0
-64 -69 -70 0
64 69 -70 0
-64 69 70 0
64 -69 70 0
-71 62 0
-71 -70 0
-62 70 71 0
72 11 0
72 18 0
-11 -18 -72 0
73 72 0
73 27 0
-72 -27 -73 0
-74 -34 0
-74 -73 0
34 73 74 0
71 -74 -75 0
-71 74 -75 0
71 74 75 0
-71 -74 75 0
-76 59 0
-76 75 0
-59 -75 76 0
-77 20 0
-77 2 0
-20 -2 77 0
-78 -12 0
-78 -25 0
12 25 78 0
77 78 -79 0
-77 -78 -79 0
77 -78 79 0
-77 78 79 0
80 48 0
80 -48 0
43 -20 -81 0
-43 20 -81 0
43 20 81 0
-43 -20 81 0
-57 -81 -82 0
57 81 -82 0
-57 81 82 0
57 -81 82 0
82 -83 -84 0
-82 83 -84 0
82 83 84 0
-82 -83 84 0
85 80 0
85 -84 0
-80 84 -85 0
72 23 -86 0
-72 -23 -86 0
72 -23 86 0
-72 23 86 0
34 50 -87 0
-34 -50 -87 0
34 -50 87 0
-34 50 87 0
-86 87 -88 0
86 -87 -88 0
-86 -87 88 0
86 87 88 0
89 1 0
89 -25 0
-1 25 -89 0
-90 88 0
-90 89 0
-88 -89 90 0
91 85 0
91 -90 0
-85 90 -91 0
-79 91 -92 0
79 -91 -92 0
-79 -91 92 0
79 91 92 0
93 76 0
93 -92 0
-76 92 -93 0
94 4 0
94 -43 0
-4 43 -94 0
94 -22 -95 0
-94 22 -95 0
94 22 95 0
-94 -22 95 0
96 -28 0
96 78 0
28 -78 -96 0
61 48 -97 0
-61 -48 -97 0
61 -48 97 0
-61 48 97 0
49 -14 -98 0
-49 14 -98 0
49 14 98 0
-49 -14 98 0
99 -98 0
99 -24 0
98 24 -99 0
-100 -99 0
-100 -39 0
99 39 100 0
-97 100 -101 0
97 -100 -101 0
-97 -100 101 0
97 100 101 0
102 -96 0
102 -101 0
96 101 -102 0
103 -95 0
103 -102 0
95 102 -103 0
104 93 0
104 103 0
-93 -103 -104 0
-105 -81 0
-105 -36 0
81 36 105 0
106 -4 0
106 -94 0
4 94 -106 0
107 43 0
107 -106 0
-43 106 -107 0
108 107 0
108 -49 0
-107 49 -108 0
109 -9 0
109 -24 0
9 24 -109 0
110 -1 0
110 -109 0
1 109 -110 0
-40 66 -111 0
40 -66 -111 0
-40 -66 111 0
40 66 111 0
110 111 -112 0
-110 -111 -112 0
110 -111 112 0
-110 111 112 0
-113 108 0
-113 112 0
-108 -112 113 0
114 -105 0
114 -113 0
105 113 -114 0
115 104 0
115 114 0
-104 -114 -115 0
49 23 -44 67 0
-95 61 0
90 3 -39 92 -79 0
-21 -111 0
-2 -90 -30 83 0
-16 -82 0
-57 -109 -25 96 13 -29 0
-58 -115 31 88 35 96 0
-94 -106 0
-94 -88 -44 -76 0
78 76 0
18 -108 109 -8 111 57 0
-19 -78 -82 0
114 44 0
81 50 35 0
-85 -2 39 -104 4 3 0
-49 -18 109 0
-70 113 -27 -64 83 0
-5 58 69 0
19 3 38 0
-19 -42 67 0
-9 -62 0
-72 -1 -23 0
103 51 90 0
-30 67 -10 55 91 0
-15 16 -14 -84 0
-58 -37 -86 0
-76 -89 -14 43 0
40 108 95 0
-70 -7 -22 15 100 0
-90 -27 19 100 76 0
-61 -26 -11 -84 44 -97 0
5 -91 -93 -54 -101 0
82 104 102 -110 43 -71 0
-59 44 -55 -40 -4 0
115 -38 -56 63 -32 0
50 86 38 3 0
-12 115 -106 -78 39 0
57 45 0
-27 58 -105 50 46 0
-79 -71 -95 0
110 38 19 47 29 0
94 45 -78 -29 101 -87 0
108 -99 -27 0
21 91 0
82 -99 51 0
68 -20 -35 -27 0
-77 -109 -60 -85 -23 -12 0
112 -66 16 0
106 -4 -67 0
23 25 -69 0
-33 105 -50 69 0
60 53 -104 0
-87 8 14 88 104 0
-33 25 106 59 0
-13 0
-33 9 86 0
-73 -100 -69 -49 -56 0
-59 32 0
109 114 0
91 83 -41 32 95 0
-85 -87 -96 49 46 0
-68 102 0
-65 113 0
109 60 -8 95 0
-43 17 0
-76 83 -109 66 -57 0
115 0
